c File:  mulsol.i.2.col
c
c SOURCE: Gary Lewandowski (gary@cs.wisc.edu)
c
c DESCRIPTION: Coloring problem generated from a register allocation
c              problem based on real code.
c
c graph #2 from register allocation file mulsol.i
p edge 188 3885
e 1 2
e 1 3
e 1 4
e 1 5
e 1 6
e 1 7
e 1 8
e 1 9
e 1 10
e 1 11
e 1 12
e 1 13
e 1 14
e 1 15
e 1 16
e 1 33
e 1 46
e 1 47
e 1 48
e 1 49
e 1 50
e 1 51
e 1 52
e 1 53
e 1 54
e 1 61
e 1 63
e 1 64
e 1 65
e 1 66
e 1 67
e 1 70
e 1 101
e 1 102
e 1 103
e 1 104
e 1 105
e 1 106
e 1 107
e 1 108
e 1 112
e 1 113
e 1 118
e 1 119
e 1 120
e 1 129
e 1 131
e 1 133
e 1 134
e 1 135
e 1 137
e 1 138
e 1 143
e 1 144
e 1 145
e 1 146
e 1 147
e 1 148
e 1 149
e 1 154
e 1 155
e 1 156
e 1 157
e 1 158
e 1 164
e 1 165
e 1 166
e 1 183
e 1 184
e 1 68
e 1 62
e 1 60
e 1 59
e 1 58
e 1 57
e 1 56
e 1 55
e 1 45
e 1 44
e 1 43
e 1 42
e 1 41
e 1 40
e 1 39
e 1 38
e 1 188
e 1 187
e 1 37
e 1 180
e 1 179
e 1 178
e 1 177
e 1 186
e 1 176
e 1 175
e 1 174
e 1 173
e 1 172
e 1 171
e 1 170
e 1 169
e 1 168
e 1 167
e 1 163
e 1 162
e 1 97
e 1 96
e 1 95
e 1 94
e 1 93
e 1 92
e 1 91
e 1 90
e 1 89
e 1 88
e 1 87
e 1 86
e 1 85
e 1 84
e 1 83
e 1 82
e 1 81
e 1 80
e 1 79
e 1 78
e 1 77
e 1 76
e 1 75
e 1 74
e 1 73
e 1 72
e 1 71
e 1 69
e 1 100
e 1 99
e 1 35
e 1 160
e 1 111
e 1 110
e 1 36
e 1 151
e 1 117
e 1 116
e 1 115
e 1 114
e 1 34
e 1 140
e 1 136
e 1 132
e 1 130
e 1 128
e 1 124
e 1 123
e 1 122
e 1 121
e 1 125
e 2 3
e 2 4
e 2 5
e 2 6
e 2 7
e 2 8
e 2 9
e 2 10
e 2 11
e 2 12
e 2 13
e 2 14
e 2 15
e 2 16
e 2 33
e 2 46
e 2 47
e 2 48
e 2 49
e 2 50
e 2 51
e 2 52
e 2 53
e 2 54
e 2 61
e 2 63
e 2 64
e 2 65
e 2 66
e 2 67
e 2 70
e 2 101
e 2 102
e 2 103
e 2 104
e 2 105
e 2 106
e 2 107
e 2 108
e 2 112
e 2 113
e 2 118
e 2 119
e 2 120
e 2 129
e 2 131
e 2 133
e 2 134
e 2 135
e 2 137
e 2 138
e 2 143
e 2 144
e 2 145
e 2 146
e 2 147
e 2 148
e 2 149
e 2 154
e 2 155
e 2 156
e 2 157
e 2 158
e 2 164
e 2 165
e 2 166
e 2 183
e 2 184
e 2 68
e 2 62
e 2 60
e 2 59
e 2 58
e 2 57
e 2 56
e 2 55
e 2 45
e 2 44
e 2 43
e 2 42
e 2 41
e 2 40
e 2 39
e 2 38
e 2 188
e 2 187
e 2 37
e 2 180
e 2 179
e 2 178
e 2 177
e 2 186
e 2 176
e 2 175
e 2 174
e 2 173
e 2 172
e 2 171
e 2 170
e 2 169
e 2 168
e 2 167
e 2 163
e 2 162
e 2 97
e 2 96
e 2 95
e 2 94
e 2 93
e 2 92
e 2 91
e 2 90
e 2 89
e 2 88
e 2 87
e 2 86
e 2 85
e 2 84
e 2 83
e 2 82
e 2 81
e 2 80
e 2 79
e 2 78
e 2 77
e 2 76
e 2 75
e 2 74
e 2 73
e 2 72
e 2 71
e 2 69
e 2 100
e 2 99
e 2 35
e 2 160
e 2 111
e 2 110
e 2 36
e 2 151
e 2 117
e 2 116
e 2 115
e 2 114
e 2 34
e 2 140
e 2 136
e 2 132
e 2 130
e 2 128
e 2 124
e 2 123
e 2 122
e 2 121
e 2 125
e 3 4
e 3 5
e 3 6
e 3 7
e 3 8
e 3 9
e 3 10
e 3 11
e 3 12
e 3 13
e 3 14
e 3 15
e 3 16
e 3 33
e 3 46
e 3 47
e 3 48
e 3 49
e 3 50
e 3 51
e 3 52
e 3 53
e 3 54
e 3 61
e 3 63
e 3 64
e 3 65
e 3 66
e 3 67
e 3 70
e 3 101
e 3 102
e 3 103
e 3 104
e 3 105
e 3 106
e 3 107
e 3 108
e 3 112
e 3 113
e 3 118
e 3 119
e 3 120
e 3 129
e 3 131
e 3 133
e 3 134
e 3 135
e 3 137
e 3 138
e 3 143
e 3 144
e 3 145
e 3 146
e 3 147
e 3 148
e 3 149
e 3 154
e 3 155
e 3 156
e 3 157
e 3 158
e 3 164
e 3 165
e 3 166
e 3 183
e 3 184
e 3 60
e 3 59
e 3 58
e 3 57
e 3 56
e 3 55
e 3 45
e 3 44
e 3 43
e 3 42
e 3 41
e 3 40
e 3 39
e 3 38
e 4 5
e 4 6
e 4 7
e 4 8
e 4 9
e 4 10
e 4 11
e 4 12
e 4 13
e 4 14
e 4 15
e 4 16
e 4 33
e 4 46
e 4 47
e 4 48
e 4 49
e 4 50
e 4 51
e 4 52
e 4 53
e 4 54
e 4 61
e 4 63
e 4 64
e 4 65
e 4 66
e 4 67
e 4 70
e 4 101
e 4 102
e 4 103
e 4 104
e 4 105
e 4 106
e 4 107
e 4 108
e 4 112
e 4 113
e 4 118
e 4 119
e 4 120
e 4 129
e 4 131
e 4 133
e 4 134
e 4 135
e 4 137
e 4 138
e 4 143
e 4 144
e 4 145
e 4 146
e 4 147
e 4 148
e 4 149
e 4 154
e 4 155
e 4 156
e 4 157
e 4 158
e 4 164
e 4 165
e 4 166
e 4 183
e 4 184
e 5 6
e 5 7
e 5 8
e 5 9
e 5 10
e 5 11
e 5 12
e 5 13
e 5 14
e 5 15
e 5 16
e 5 33
e 5 46
e 5 47
e 5 48
e 5 49
e 5 50
e 5 51
e 5 52
e 5 53
e 5 54
e 5 61
e 5 63
e 5 64
e 5 65
e 5 66
e 5 67
e 5 70
e 5 101
e 5 102
e 5 103
e 5 104
e 5 105
e 5 106
e 5 107
e 5 108
e 5 112
e 5 113
e 5 118
e 5 119
e 5 120
e 5 129
e 5 131
e 5 133
e 5 134
e 5 135
e 5 137
e 5 138
e 5 143
e 5 144
e 5 145
e 5 146
e 5 147
e 5 148
e 5 149
e 5 154
e 5 155
e 5 156
e 5 157
e 5 158
e 5 164
e 5 165
e 5 166
e 5 183
e 5 184
e 5 38
e 5 176
e 6 7
e 6 8
e 6 9
e 6 10
e 6 11
e 6 12
e 6 13
e 6 14
e 6 15
e 6 16
e 6 33
e 6 46
e 6 47
e 6 48
e 6 49
e 6 50
e 6 51
e 6 52
e 6 53
e 6 54
e 6 61
e 6 63
e 6 64
e 6 65
e 6 66
e 6 67
e 6 70
e 6 101
e 6 102
e 6 103
e 6 104
e 6 105
e 6 106
e 6 107
e 6 108
e 6 112
e 6 113
e 6 118
e 6 119
e 6 120
e 6 129
e 6 131
e 6 133
e 6 134
e 6 135
e 6 137
e 6 138
e 6 143
e 6 144
e 6 145
e 6 146
e 6 147
e 6 148
e 6 149
e 6 154
e 6 155
e 6 156
e 6 157
e 6 158
e 6 164
e 6 165
e 6 166
e 6 183
e 6 184
e 6 39
e 6 38
e 6 175
e 6 176
e 7 8
e 7 9
e 7 10
e 7 11
e 7 12
e 7 13
e 7 14
e 7 15
e 7 16
e 7 33
e 7 46
e 7 47
e 7 48
e 7 49
e 7 50
e 7 51
e 7 52
e 7 53
e 7 54
e 7 61
e 7 63
e 7 64
e 7 65
e 7 66
e 7 67
e 7 70
e 7 101
e 7 102
e 7 103
e 7 104
e 7 105
e 7 106
e 7 107
e 7 108
e 7 112
e 7 113
e 7 118
e 7 119
e 7 120
e 7 129
e 7 131
e 7 133
e 7 134
e 7 135
e 7 137
e 7 138
e 7 143
e 7 144
e 7 145
e 7 146
e 7 147
e 7 148
e 7 149
e 7 154
e 7 155
e 7 156
e 7 157
e 7 158
e 7 164
e 7 165
e 7 166
e 7 183
e 7 184
e 7 40
e 7 39
e 7 38
e 7 174
e 7 175
e 7 176
e 8 9
e 8 10
e 8 11
e 8 12
e 8 13
e 8 14
e 8 15
e 8 16
e 8 33
e 8 46
e 8 47
e 8 48
e 8 49
e 8 50
e 8 51
e 8 52
e 8 53
e 8 54
e 8 61
e 8 63
e 8 64
e 8 65
e 8 66
e 8 67
e 8 70
e 8 101
e 8 102
e 8 103
e 8 104
e 8 105
e 8 106
e 8 107
e 8 108
e 8 112
e 8 113
e 8 118
e 8 119
e 8 120
e 8 129
e 8 131
e 8 133
e 8 134
e 8 135
e 8 137
e 8 138
e 8 143
e 8 144
e 8 145
e 8 146
e 8 147
e 8 148
e 8 149
e 8 154
e 8 155
e 8 156
e 8 157
e 8 158
e 8 164
e 8 165
e 8 166
e 8 183
e 8 184
e 8 41
e 8 40
e 8 39
e 8 38
e 8 173
e 8 174
e 8 175
e 8 176
e 9 10
e 9 11
e 9 12
e 9 13
e 9 14
e 9 15
e 9 16
e 9 33
e 9 46
e 9 47
e 9 48
e 9 49
e 9 50
e 9 51
e 9 52
e 9 53
e 9 54
e 9 61
e 9 63
e 9 64
e 9 65
e 9 66
e 9 67
e 9 70
e 9 101
e 9 102
e 9 103
e 9 104
e 9 105
e 9 106
e 9 107
e 9 108
e 9 112
e 9 113
e 9 118
e 9 119
e 9 120
e 9 129
e 9 131
e 9 133
e 9 134
e 9 135
e 9 137
e 9 138
e 9 143
e 9 144
e 9 145
e 9 146
e 9 147
e 9 148
e 9 149
e 9 154
e 9 155
e 9 156
e 9 157
e 9 158
e 9 164
e 9 165
e 9 166
e 9 183
e 9 184
e 9 42
e 9 41
e 9 40
e 9 39
e 9 38
e 9 172
e 9 173
e 9 174
e 9 175
e 9 176
e 10 11
e 10 12
e 10 13
e 10 14
e 10 15
e 10 16
e 10 33
e 10 46
e 10 47
e 10 48
e 10 49
e 10 50
e 10 51
e 10 52
e 10 53
e 10 54
e 10 61
e 10 63
e 10 64
e 10 65
e 10 66
e 10 67
e 10 70
e 10 101
e 10 102
e 10 103
e 10 104
e 10 105
e 10 106
e 10 107
e 10 108
e 10 112
e 10 113
e 10 118
e 10 119
e 10 120
e 10 129
e 10 131
e 10 133
e 10 134
e 10 135
e 10 137
e 10 138
e 10 143
e 10 144
e 10 145
e 10 146
e 10 147
e 10 148
e 10 149
e 10 154
e 10 155
e 10 156
e 10 157
e 10 158
e 10 164
e 10 165
e 10 166
e 10 183
e 10 184
e 10 43
e 10 42
e 10 41
e 10 40
e 10 39
e 10 38
e 10 171
e 10 172
e 10 173
e 10 174
e 10 175
e 10 176
e 11 12
e 11 13
e 11 14
e 11 15
e 11 16
e 11 33
e 11 46
e 11 47
e 11 48
e 11 49
e 11 50
e 11 51
e 11 52
e 11 53
e 11 54
e 11 61
e 11 63
e 11 64
e 11 65
e 11 66
e 11 67
e 11 70
e 11 101
e 11 102
e 11 103
e 11 104
e 11 105
e 11 106
e 11 107
e 11 108
e 11 112
e 11 113
e 11 118
e 11 119
e 11 120
e 11 129
e 11 131
e 11 133
e 11 134
e 11 135
e 11 137
e 11 138
e 11 143
e 11 144
e 11 145
e 11 146
e 11 147
e 11 148
e 11 149
e 11 154
e 11 155
e 11 156
e 11 157
e 11 158
e 11 164
e 11 165
e 11 166
e 11 183
e 11 184
e 11 45
e 11 44
e 11 43
e 11 42
e 11 41
e 11 40
e 11 39
e 11 38
e 12 13
e 12 14
e 12 15
e 12 16
e 12 33
e 12 46
e 12 47
e 12 48
e 12 49
e 12 50
e 12 51
e 12 52
e 12 53
e 12 54
e 12 61
e 12 63
e 12 64
e 12 65
e 12 66
e 12 67
e 12 70
e 12 101
e 12 102
e 12 103
e 12 104
e 12 105
e 12 106
e 12 107
e 12 108
e 12 112
e 12 113
e 12 118
e 12 119
e 12 120
e 12 129
e 12 131
e 12 133
e 12 134
e 12 135
e 12 137
e 12 138
e 12 143
e 12 144
e 12 145
e 12 146
e 12 147
e 12 148
e 12 149
e 12 154
e 12 155
e 12 156
e 12 157
e 12 158
e 12 164
e 12 165
e 12 166
e 12 183
e 12 184
e 12 56
e 12 55
e 12 45
e 12 44
e 12 43
e 12 42
e 12 41
e 12 40
e 12 39
e 12 38
e 13 14
e 13 15
e 13 16
e 13 33
e 13 46
e 13 47
e 13 48
e 13 49
e 13 50
e 13 51
e 13 52
e 13 53
e 13 54
e 13 61
e 13 63
e 13 64
e 13 65
e 13 66
e 13 67
e 13 70
e 13 101
e 13 102
e 13 103
e 13 104
e 13 105
e 13 106
e 13 107
e 13 108
e 13 112
e 13 113
e 13 118
e 13 119
e 13 120
e 13 129
e 13 131
e 13 133
e 13 134
e 13 135
e 13 137
e 13 138
e 13 143
e 13 144
e 13 145
e 13 146
e 13 147
e 13 148
e 13 149
e 13 154
e 13 155
e 13 156
e 13 157
e 13 158
e 13 164
e 13 165
e 13 166
e 13 183
e 13 184
e 13 58
e 13 57
e 13 56
e 13 55
e 13 45
e 13 44
e 13 43
e 13 42
e 13 41
e 13 40
e 13 39
e 13 38
e 14 15
e 14 16
e 14 33
e 14 46
e 14 47
e 14 48
e 14 49
e 14 50
e 14 51
e 14 52
e 14 53
e 14 54
e 14 61
e 14 63
e 14 64
e 14 65
e 14 66
e 14 67
e 14 70
e 14 101
e 14 102
e 14 103
e 14 104
e 14 105
e 14 106
e 14 107
e 14 108
e 14 112
e 14 113
e 14 118
e 14 119
e 14 120
e 14 129
e 14 131
e 14 133
e 14 134
e 14 135
e 14 137
e 14 138
e 14 143
e 14 144
e 14 145
e 14 146
e 14 147
e 14 148
e 14 149
e 14 154
e 14 155
e 14 156
e 14 157
e 14 158
e 14 164
e 14 165
e 14 166
e 14 183
e 14 184
e 14 59
e 14 58
e 14 57
e 14 56
e 14 55
e 14 45
e 14 44
e 14 43
e 14 42
e 14 41
e 14 40
e 14 39
e 14 38
e 15 16
e 15 33
e 15 46
e 15 47
e 15 48
e 15 49
e 15 50
e 15 51
e 15 52
e 15 53
e 15 54
e 15 61
e 15 63
e 15 64
e 15 65
e 15 66
e 15 67
e 15 70
e 15 101
e 15 102
e 15 103
e 15 104
e 15 105
e 15 106
e 15 107
e 15 108
e 15 112
e 15 113
e 15 118
e 15 119
e 15 120
e 15 129
e 15 131
e 15 133
e 15 134
e 15 135
e 15 137
e 15 138
e 15 143
e 15 144
e 15 145
e 15 146
e 15 147
e 15 148
e 15 149
e 15 154
e 15 155
e 15 156
e 15 157
e 15 158
e 15 164
e 15 165
e 15 166
e 15 183
e 15 184
e 16 33
e 16 46
e 16 47
e 16 48
e 16 49
e 16 50
e 16 51
e 16 52
e 16 53
e 16 54
e 16 61
e 16 63
e 16 64
e 16 65
e 16 66
e 16 67
e 16 70
e 16 101
e 16 102
e 16 103
e 16 104
e 16 105
e 16 106
e 16 107
e 16 108
e 16 112
e 16 113
e 16 118
e 16 119
e 16 120
e 16 129
e 16 131
e 16 133
e 16 134
e 16 135
e 16 137
e 16 138
e 16 143
e 16 144
e 16 145
e 16 146
e 16 147
e 16 148
e 16 149
e 16 154
e 16 155
e 16 156
e 16 157
e 16 158
e 16 164
e 16 165
e 16 166
e 16 183
e 16 184
e 16 44
e 16 43
e 16 42
e 16 41
e 16 40
e 16 39
e 16 38
e 16 171
e 16 172
e 16 173
e 16 174
e 16 175
e 16 176
e 16 170
e 17 18
e 17 19
e 17 20
e 17 21
e 17 22
e 17 23
e 17 24
e 17 25
e 17 26
e 17 27
e 17 28
e 17 29
e 17 30
e 17 31
e 17 32
e 17 34
e 17 35
e 17 36
e 17 37
e 17 38
e 17 39
e 17 40
e 17 41
e 17 42
e 17 43
e 17 44
e 17 45
e 17 55
e 17 56
e 17 57
e 17 58
e 17 59
e 17 60
e 17 62
e 17 68
e 17 69
e 17 71
e 17 72
e 17 73
e 17 74
e 17 75
e 17 76
e 17 77
e 17 78
e 17 79
e 17 80
e 17 81
e 17 82
e 17 83
e 17 84
e 17 85
e 17 86
e 17 87
e 17 88
e 17 89
e 17 90
e 17 91
e 17 92
e 17 93
e 17 94
e 17 95
e 17 96
e 17 97
e 17 99
e 17 100
e 17 110
e 17 111
e 17 114
e 17 115
e 17 116
e 17 117
e 17 121
e 17 122
e 17 123
e 17 124
e 17 125
e 17 128
e 17 130
e 17 132
e 17 136
e 17 140
e 17 151
e 17 160
e 17 162
e 17 163
e 17 167
e 17 168
e 17 169
e 17 170
e 17 171
e 17 172
e 17 173
e 17 174
e 17 175
e 17 176
e 17 177
e 17 178
e 17 179
e 17 180
e 17 186
e 17 187
e 17 188
e 17 67
e 17 66
e 17 65
e 17 64
e 17 63
e 17 61
e 17 54
e 17 53
e 17 52
e 17 51
e 17 50
e 17 49
e 17 48
e 17 47
e 17 46
e 17 184
e 17 183
e 17 166
e 17 165
e 17 164
e 17 70
e 17 33
e 17 108
e 17 107
e 17 106
e 17 105
e 17 104
e 17 103
e 17 102
e 17 101
e 17 158
e 17 157
e 17 156
e 17 155
e 17 154
e 17 113
e 17 112
e 17 149
e 17 148
e 17 147
e 17 146
e 17 145
e 17 144
e 17 143
e 17 120
e 17 119
e 17 118
e 17 138
e 17 137
e 17 135
e 17 134
e 17 133
e 17 131
e 17 129
e 18 19
e 18 20
e 18 21
e 18 22
e 18 23
e 18 24
e 18 25
e 18 26
e 18 27
e 18 28
e 18 29
e 18 30
e 18 31
e 18 32
e 18 34
e 18 35
e 18 36
e 18 37
e 18 38
e 18 39
e 18 40
e 18 41
e 18 42
e 18 43
e 18 44
e 18 45
e 18 55
e 18 56
e 18 57
e 18 58
e 18 59
e 18 60
e 18 62
e 18 68
e 18 69
e 18 71
e 18 72
e 18 73
e 18 74
e 18 75
e 18 76
e 18 77
e 18 78
e 18 79
e 18 80
e 18 81
e 18 82
e 18 83
e 18 84
e 18 85
e 18 86
e 18 87
e 18 88
e 18 89
e 18 90
e 18 91
e 18 92
e 18 93
e 18 94
e 18 95
e 18 96
e 18 97
e 18 99
e 18 100
e 18 110
e 18 111
e 18 114
e 18 115
e 18 116
e 18 117
e 18 121
e 18 122
e 18 123
e 18 124
e 18 125
e 18 128
e 18 130
e 18 132
e 18 136
e 18 140
e 18 151
e 18 160
e 18 162
e 18 163
e 18 167
e 18 168
e 18 169
e 18 170
e 18 171
e 18 172
e 18 173
e 18 174
e 18 175
e 18 176
e 18 177
e 18 178
e 18 179
e 18 180
e 18 186
e 18 187
e 18 188
e 19 20
e 19 21
e 19 22
e 19 23
e 19 24
e 19 25
e 19 26
e 19 27
e 19 28
e 19 29
e 19 30
e 19 31
e 19 32
e 19 34
e 19 35
e 19 36
e 19 37
e 19 38
e 19 39
e 19 40
e 19 41
e 19 42
e 19 43
e 19 44
e 19 45
e 19 55
e 19 56
e 19 57
e 19 58
e 19 59
e 19 60
e 19 62
e 19 68
e 19 69
e 19 71
e 19 72
e 19 73
e 19 74
e 19 75
e 19 76
e 19 77
e 19 78
e 19 79
e 19 80
e 19 81
e 19 82
e 19 83
e 19 84
e 19 85
e 19 86
e 19 87
e 19 88
e 19 89
e 19 90
e 19 91
e 19 92
e 19 93
e 19 94
e 19 95
e 19 96
e 19 97
e 19 99
e 19 100
e 19 110
e 19 111
e 19 114
e 19 115
e 19 116
e 19 117
e 19 121
e 19 122
e 19 123
e 19 124
e 19 125
e 19 128
e 19 130
e 19 132
e 19 136
e 19 140
e 19 151
e 19 160
e 19 162
e 19 163
e 19 167
e 19 168
e 19 169
e 19 170
e 19 171
e 19 172
e 19 173
e 19 174
e 19 175
e 19 176
e 19 177
e 19 178
e 19 179
e 19 180
e 19 186
e 19 187
e 19 188
e 19 46
e 19 164
e 20 21
e 20 22
e 20 23
e 20 24
e 20 25
e 20 26
e 20 27
e 20 28
e 20 29
e 20 30
e 20 31
e 20 32
e 20 34
e 20 35
e 20 36
e 20 37
e 20 38
e 20 39
e 20 40
e 20 41
e 20 42
e 20 43
e 20 44
e 20 45
e 20 55
e 20 56
e 20 57
e 20 58
e 20 59
e 20 60
e 20 62
e 20 68
e 20 69
e 20 71
e 20 72
e 20 73
e 20 74
e 20 75
e 20 76
e 20 77
e 20 78
e 20 79
e 20 80
e 20 81
e 20 82
e 20 83
e 20 84
e 20 85
e 20 86
e 20 87
e 20 88
e 20 89
e 20 90
e 20 91
e 20 92
e 20 93
e 20 94
e 20 95
e 20 96
e 20 97
e 20 99
e 20 100
e 20 110
e 20 111
e 20 114
e 20 115
e 20 116
e 20 117
e 20 121
e 20 122
e 20 123
e 20 124
e 20 125
e 20 128
e 20 130
e 20 132
e 20 136
e 20 140
e 20 151
e 20 160
e 20 162
e 20 163
e 20 167
e 20 168
e 20 169
e 20 170
e 20 171
e 20 172
e 20 173
e 20 174
e 20 175
e 20 176
e 20 177
e 20 178
e 20 179
e 20 180
e 20 186
e 20 187
e 20 188
e 20 47
e 20 46
e 20 165
e 20 164
e 21 22
e 21 23
e 21 24
e 21 25
e 21 26
e 21 27
e 21 28
e 21 29
e 21 30
e 21 31
e 21 32
e 21 34
e 21 35
e 21 36
e 21 37
e 21 38
e 21 39
e 21 40
e 21 41
e 21 42
e 21 43
e 21 44
e 21 45
e 21 55
e 21 56
e 21 57
e 21 58
e 21 59
e 21 60
e 21 62
e 21 68
e 21 69
e 21 71
e 21 72
e 21 73
e 21 74
e 21 75
e 21 76
e 21 77
e 21 78
e 21 79
e 21 80
e 21 81
e 21 82
e 21 83
e 21 84
e 21 85
e 21 86
e 21 87
e 21 88
e 21 89
e 21 90
e 21 91
e 21 92
e 21 93
e 21 94
e 21 95
e 21 96
e 21 97
e 21 99
e 21 100
e 21 110
e 21 111
e 21 114
e 21 115
e 21 116
e 21 117
e 21 121
e 21 122
e 21 123
e 21 124
e 21 125
e 21 128
e 21 130
e 21 132
e 21 136
e 21 140
e 21 151
e 21 160
e 21 162
e 21 163
e 21 167
e 21 168
e 21 169
e 21 170
e 21 171
e 21 172
e 21 173
e 21 174
e 21 175
e 21 176
e 21 177
e 21 178
e 21 179
e 21 180
e 21 186
e 21 187
e 21 188
e 21 48
e 21 47
e 21 46
e 21 166
e 21 165
e 21 164
e 22 23
e 22 24
e 22 25
e 22 26
e 22 27
e 22 28
e 22 29
e 22 30
e 22 31
e 22 32
e 22 34
e 22 35
e 22 36
e 22 37
e 22 38
e 22 39
e 22 40
e 22 41
e 22 42
e 22 43
e 22 44
e 22 45
e 22 55
e 22 56
e 22 57
e 22 58
e 22 59
e 22 60
e 22 62
e 22 68
e 22 69
e 22 71
e 22 72
e 22 73
e 22 74
e 22 75
e 22 76
e 22 77
e 22 78
e 22 79
e 22 80
e 22 81
e 22 82
e 22 83
e 22 84
e 22 85
e 22 86
e 22 87
e 22 88
e 22 89
e 22 90
e 22 91
e 22 92
e 22 93
e 22 94
e 22 95
e 22 96
e 22 97
e 22 99
e 22 100
e 22 110
e 22 111
e 22 114
e 22 115
e 22 116
e 22 117
e 22 121
e 22 122
e 22 123
e 22 124
e 22 125
e 22 128
e 22 130
e 22 132
e 22 136
e 22 140
e 22 151
e 22 160
e 22 162
e 22 163
e 22 167
e 22 168
e 22 169
e 22 170
e 22 171
e 22 172
e 22 173
e 22 174
e 22 175
e 22 176
e 22 177
e 22 178
e 22 179
e 22 180
e 22 186
e 22 187
e 22 188
e 22 49
e 22 48
e 22 47
e 22 46
e 22 166
e 22 165
e 22 164
e 23 24
e 23 25
e 23 26
e 23 27
e 23 28
e 23 29
e 23 30
e 23 31
e 23 32
e 23 34
e 23 35
e 23 36
e 23 37
e 23 38
e 23 39
e 23 40
e 23 41
e 23 42
e 23 43
e 23 44
e 23 45
e 23 55
e 23 56
e 23 57
e 23 58
e 23 59
e 23 60
e 23 62
e 23 68
e 23 69
e 23 71
e 23 72
e 23 73
e 23 74
e 23 75
e 23 76
e 23 77
e 23 78
e 23 79
e 23 80
e 23 81
e 23 82
e 23 83
e 23 84
e 23 85
e 23 86
e 23 87
e 23 88
e 23 89
e 23 90
e 23 91
e 23 92
e 23 93
e 23 94
e 23 95
e 23 96
e 23 97
e 23 99
e 23 100
e 23 110
e 23 111
e 23 114
e 23 115
e 23 116
e 23 117
e 23 121
e 23 122
e 23 123
e 23 124
e 23 125
e 23 128
e 23 130
e 23 132
e 23 136
e 23 140
e 23 151
e 23 160
e 23 162
e 23 163
e 23 167
e 23 168
e 23 169
e 23 170
e 23 171
e 23 172
e 23 173
e 23 174
e 23 175
e 23 176
e 23 177
e 23 178
e 23 179
e 23 180
e 23 186
e 23 187
e 23 188
e 23 50
e 23 49
e 23 48
e 23 47
e 23 46
e 23 166
e 23 165
e 23 164
e 24 25
e 24 26
e 24 27
e 24 28
e 24 29
e 24 30
e 24 31
e 24 32
e 24 34
e 24 35
e 24 36
e 24 37
e 24 38
e 24 39
e 24 40
e 24 41
e 24 42
e 24 43
e 24 44
e 24 45
e 24 55
e 24 56
e 24 57
e 24 58
e 24 59
e 24 60
e 24 62
e 24 68
e 24 69
e 24 71
e 24 72
e 24 73
e 24 74
e 24 75
e 24 76
e 24 77
e 24 78
e 24 79
e 24 80
e 24 81
e 24 82
e 24 83
e 24 84
e 24 85
e 24 86
e 24 87
e 24 88
e 24 89
e 24 90
e 24 91
e 24 92
e 24 93
e 24 94
e 24 95
e 24 96
e 24 97
e 24 99
e 24 100
e 24 110
e 24 111
e 24 114
e 24 115
e 24 116
e 24 117
e 24 121
e 24 122
e 24 123
e 24 124
e 24 125
e 24 128
e 24 130
e 24 132
e 24 136
e 24 140
e 24 151
e 24 160
e 24 162
e 24 163
e 24 167
e 24 168
e 24 169
e 24 170
e 24 171
e 24 172
e 24 173
e 24 174
e 24 175
e 24 176
e 24 177
e 24 178
e 24 179
e 24 180
e 24 186
e 24 187
e 24 188
e 24 51
e 24 50
e 24 49
e 24 48
e 24 47
e 24 46
e 24 166
e 24 165
e 24 164
e 25 26
e 25 27
e 25 28
e 25 29
e 25 30
e 25 31
e 25 32
e 25 34
e 25 35
e 25 36
e 25 37
e 25 38
e 25 39
e 25 40
e 25 41
e 25 42
e 25 43
e 25 44
e 25 45
e 25 55
e 25 56
e 25 57
e 25 58
e 25 59
e 25 60
e 25 62
e 25 68
e 25 69
e 25 71
e 25 72
e 25 73
e 25 74
e 25 75
e 25 76
e 25 77
e 25 78
e 25 79
e 25 80
e 25 81
e 25 82
e 25 83
e 25 84
e 25 85
e 25 86
e 25 87
e 25 88
e 25 89
e 25 90
e 25 91
e 25 92
e 25 93
e 25 94
e 25 95
e 25 96
e 25 97
e 25 99
e 25 100
e 25 110
e 25 111
e 25 114
e 25 115
e 25 116
e 25 117
e 25 121
e 25 122
e 25 123
e 25 124
e 25 125
e 25 128
e 25 130
e 25 132
e 25 136
e 25 140
e 25 151
e 25 160
e 25 162
e 25 163
e 25 167
e 25 168
e 25 169
e 25 170
e 25 171
e 25 172
e 25 173
e 25 174
e 25 175
e 25 176
e 25 177
e 25 178
e 25 179
e 25 180
e 25 186
e 25 187
e 25 188
e 25 52
e 25 51
e 25 50
e 25 49
e 25 48
e 25 47
e 25 46
e 25 166
e 25 165
e 25 164
e 26 27
e 26 28
e 26 29
e 26 30
e 26 31
e 26 32
e 26 34
e 26 35
e 26 36
e 26 37
e 26 38
e 26 39
e 26 40
e 26 41
e 26 42
e 26 43
e 26 44
e 26 45
e 26 55
e 26 56
e 26 57
e 26 58
e 26 59
e 26 60
e 26 62
e 26 68
e 26 69
e 26 71
e 26 72
e 26 73
e 26 74
e 26 75
e 26 76
e 26 77
e 26 78
e 26 79
e 26 80
e 26 81
e 26 82
e 26 83
e 26 84
e 26 85
e 26 86
e 26 87
e 26 88
e 26 89
e 26 90
e 26 91
e 26 92
e 26 93
e 26 94
e 26 95
e 26 96
e 26 97
e 26 99
e 26 100
e 26 110
e 26 111
e 26 114
e 26 115
e 26 116
e 26 117
e 26 121
e 26 122
e 26 123
e 26 124
e 26 125
e 26 128
e 26 130
e 26 132
e 26 136
e 26 140
e 26 151
e 26 160
e 26 162
e 26 163
e 26 167
e 26 168
e 26 169
e 26 170
e 26 171
e 26 172
e 26 173
e 26 174
e 26 175
e 26 176
e 26 177
e 26 178
e 26 179
e 26 180
e 26 186
e 26 187
e 26 188
e 26 53
e 26 52
e 26 51
e 26 50
e 26 49
e 26 48
e 26 47
e 26 46
e 26 166
e 26 165
e 26 164
e 27 28
e 27 29
e 27 30
e 27 31
e 27 32
e 27 34
e 27 35
e 27 36
e 27 37
e 27 38
e 27 39
e 27 40
e 27 41
e 27 42
e 27 43
e 27 44
e 27 45
e 27 55
e 27 56
e 27 57
e 27 58
e 27 59
e 27 60
e 27 62
e 27 68
e 27 69
e 27 71
e 27 72
e 27 73
e 27 74
e 27 75
e 27 76
e 27 77
e 27 78
e 27 79
e 27 80
e 27 81
e 27 82
e 27 83
e 27 84
e 27 85
e 27 86
e 27 87
e 27 88
e 27 89
e 27 90
e 27 91
e 27 92
e 27 93
e 27 94
e 27 95
e 27 96
e 27 97
e 27 99
e 27 100
e 27 110
e 27 111
e 27 114
e 27 115
e 27 116
e 27 117
e 27 121
e 27 122
e 27 123
e 27 124
e 27 125
e 27 128
e 27 130
e 27 132
e 27 136
e 27 140
e 27 151
e 27 160
e 27 162
e 27 163
e 27 167
e 27 168
e 27 169
e 27 170
e 27 171
e 27 172
e 27 173
e 27 174
e 27 175
e 27 176
e 27 177
e 27 178
e 27 179
e 27 180
e 27 186
e 27 187
e 27 188
e 28 29
e 28 30
e 28 31
e 28 32
e 28 34
e 28 35
e 28 36
e 28 37
e 28 38
e 28 39
e 28 40
e 28 41
e 28 42
e 28 43
e 28 44
e 28 45
e 28 55
e 28 56
e 28 57
e 28 58
e 28 59
e 28 60
e 28 62
e 28 68
e 28 69
e 28 71
e 28 72
e 28 73
e 28 74
e 28 75
e 28 76
e 28 77
e 28 78
e 28 79
e 28 80
e 28 81
e 28 82
e 28 83
e 28 84
e 28 85
e 28 86
e 28 87
e 28 88
e 28 89
e 28 90
e 28 91
e 28 92
e 28 93
e 28 94
e 28 95
e 28 96
e 28 97
e 28 99
e 28 100
e 28 110
e 28 111
e 28 114
e 28 115
e 28 116
e 28 117
e 28 121
e 28 122
e 28 123
e 28 124
e 28 125
e 28 128
e 28 130
e 28 132
e 28 136
e 28 140
e 28 151
e 28 160
e 28 162
e 28 163
e 28 167
e 28 168
e 28 169
e 28 170
e 28 171
e 28 172
e 28 173
e 28 174
e 28 175
e 28 176
e 28 177
e 28 178
e 28 179
e 28 180
e 28 186
e 28 187
e 28 188
e 29 30
e 29 31
e 29 32
e 29 34
e 29 35
e 29 36
e 29 37
e 29 38
e 29 39
e 29 40
e 29 41
e 29 42
e 29 43
e 29 44
e 29 45
e 29 55
e 29 56
e 29 57
e 29 58
e 29 59
e 29 60
e 29 62
e 29 68
e 29 69
e 29 71
e 29 72
e 29 73
e 29 74
e 29 75
e 29 76
e 29 77
e 29 78
e 29 79
e 29 80
e 29 81
e 29 82
e 29 83
e 29 84
e 29 85
e 29 86
e 29 87
e 29 88
e 29 89
e 29 90
e 29 91
e 29 92
e 29 93
e 29 94
e 29 95
e 29 96
e 29 97
e 29 99
e 29 100
e 29 110
e 29 111
e 29 114
e 29 115
e 29 116
e 29 117
e 29 121
e 29 122
e 29 123
e 29 124
e 29 125
e 29 128
e 29 130
e 29 132
e 29 136
e 29 140
e 29 151
e 29 160
e 29 162
e 29 163
e 29 167
e 29 168
e 29 169
e 29 170
e 29 171
e 29 172
e 29 173
e 29 174
e 29 175
e 29 176
e 29 177
e 29 178
e 29 179
e 29 180
e 29 186
e 29 187
e 29 188
e 30 31
e 30 32
e 30 34
e 30 35
e 30 36
e 30 37
e 30 38
e 30 39
e 30 40
e 30 41
e 30 42
e 30 43
e 30 44
e 30 45
e 30 55
e 30 56
e 30 57
e 30 58
e 30 59
e 30 60
e 30 62
e 30 68
e 30 69
e 30 71
e 30 72
e 30 73
e 30 74
e 30 75
e 30 76
e 30 77
e 30 78
e 30 79
e 30 80
e 30 81
e 30 82
e 30 83
e 30 84
e 30 85
e 30 86
e 30 87
e 30 88
e 30 89
e 30 90
e 30 91
e 30 92
e 30 93
e 30 94
e 30 95
e 30 96
e 30 97
e 30 99
e 30 100
e 30 110
e 30 111
e 30 114
e 30 115
e 30 116
e 30 117
e 30 121
e 30 122
e 30 123
e 30 124
e 30 125
e 30 128
e 30 130
e 30 132
e 30 136
e 30 140
e 30 151
e 30 160
e 30 162
e 30 163
e 30 167
e 30 168
e 30 169
e 30 170
e 30 171
e 30 172
e 30 173
e 30 174
e 30 175
e 30 176
e 30 177
e 30 178
e 30 179
e 30 180
e 30 186
e 30 187
e 30 188
e 31 32
e 31 34
e 31 35
e 31 36
e 31 37
e 31 38
e 31 39
e 31 40
e 31 41
e 31 42
e 31 43
e 31 44
e 31 45
e 31 55
e 31 56
e 31 57
e 31 58
e 31 59
e 31 60
e 31 62
e 31 68
e 31 69
e 31 71
e 31 72
e 31 73
e 31 74
e 31 75
e 31 76
e 31 77
e 31 78
e 31 79
e 31 80
e 31 81
e 31 82
e 31 83
e 31 84
e 31 85
e 31 86
e 31 87
e 31 88
e 31 89
e 31 90
e 31 91
e 31 92
e 31 93
e 31 94
e 31 95
e 31 96
e 31 97
e 31 99
e 31 100
e 31 110
e 31 111
e 31 114
e 31 115
e 31 116
e 31 117
e 31 121
e 31 122
e 31 123
e 31 124
e 31 125
e 31 128
e 31 130
e 31 132
e 31 136
e 31 140
e 31 151
e 31 160
e 31 162
e 31 163
e 31 167
e 31 168
e 31 169
e 31 170
e 31 171
e 31 172
e 31 173
e 31 174
e 31 175
e 31 176
e 31 177
e 31 178
e 31 179
e 31 180
e 31 186
e 31 187
e 31 188
e 32 34
e 32 35
e 32 36
e 32 37
e 32 38
e 32 39
e 32 40
e 32 41
e 32 42
e 32 43
e 32 44
e 32 45
e 32 55
e 32 56
e 32 57
e 32 58
e 32 59
e 32 60
e 32 62
e 32 68
e 32 69
e 32 71
e 32 72
e 32 73
e 32 74
e 32 75
e 32 76
e 32 77
e 32 78
e 32 79
e 32 80
e 32 81
e 32 82
e 32 83
e 32 84
e 32 85
e 32 86
e 32 87
e 32 88
e 32 89
e 32 90
e 32 91
e 32 92
e 32 93
e 32 94
e 32 95
e 32 96
e 32 97
e 32 99
e 32 100
e 32 110
e 32 111
e 32 114
e 32 115
e 32 116
e 32 117
e 32 121
e 32 122
e 32 123
e 32 124
e 32 125
e 32 128
e 32 130
e 32 132
e 32 136
e 32 140
e 32 151
e 32 160
e 32 162
e 32 163
e 32 167
e 32 168
e 32 169
e 32 170
e 32 171
e 32 172
e 32 173
e 32 174
e 32 175
e 32 176
e 32 177
e 32 178
e 32 179
e 32 180
e 32 186
e 32 187
e 32 188
e 33 108
e 33 70
e 33 67
e 33 66
e 33 65
e 33 63
e 33 61
e 33 54
e 33 53
e 33 52
e 33 51
e 33 50
e 33 49
e 33 112
e 34 96
e 34 95
e 34 93
e 34 92
e 34 90
e 34 89
e 34 86
e 34 85
e 34 83
e 34 71
e 34 60
e 34 140
e 34 136
e 34 132
e 34 130
e 34 128
e 35 96
e 35 95
e 35 93
e 35 92
e 35 90
e 35 89
e 35 86
e 35 85
e 35 83
e 35 71
e 35 60
e 35 160
e 36 96
e 36 95
e 36 93
e 36 92
e 36 90
e 36 89
e 36 86
e 36 85
e 36 83
e 36 71
e 36 60
e 36 151
e 37 180
e 37 179
e 37 186
e 49 67
e 49 66
e 49 65
e 49 64
e 49 63
e 49 61
e 49 54
e 49 53
e 49 52
e 49 51
e 49 50
e 49 184
e 49 183
e 49 166
e 49 165
e 49 164
e 49 70
e 49 108
e 49 107
e 49 106
e 49 105
e 49 104
e 49 103
e 49 102
e 49 101
e 49 158
e 49 157
e 49 156
e 49 155
e 49 154
e 49 113
e 49 112
e 49 149
e 49 148
e 49 147
e 49 146
e 49 145
e 49 144
e 49 143
e 49 120
e 49 119
e 49 118
e 49 138
e 49 137
e 49 135
e 49 134
e 49 133
e 49 131
e 49 129
e 50 67
e 50 66
e 50 65
e 50 64
e 50 63
e 50 61
e 50 54
e 50 53
e 50 52
e 50 51
e 50 184
e 50 183
e 50 166
e 50 165
e 50 164
e 50 70
e 50 108
e 50 107
e 50 106
e 50 105
e 50 104
e 50 103
e 50 102
e 50 101
e 50 158
e 50 157
e 50 156
e 50 155
e 50 154
e 50 113
e 50 112
e 50 149
e 50 148
e 50 147
e 50 146
e 50 145
e 50 144
e 50 143
e 50 120
e 50 119
e 50 118
e 50 138
e 50 137
e 50 135
e 50 134
e 50 133
e 50 131
e 50 129
e 51 67
e 51 66
e 51 65
e 51 64
e 51 63
e 51 61
e 51 54
e 51 53
e 51 52
e 51 184
e 51 183
e 51 166
e 51 165
e 51 164
e 51 70
e 51 108
e 51 107
e 51 106
e 51 105
e 51 104
e 51 103
e 51 102
e 51 101
e 51 158
e 51 157
e 51 156
e 51 155
e 51 154
e 51 113
e 51 112
e 51 149
e 51 148
e 51 147
e 51 146
e 51 145
e 51 144
e 51 143
e 51 120
e 51 119
e 51 118
e 51 138
e 51 137
e 51 135
e 51 134
e 51 133
e 51 131
e 51 129
e 52 67
e 52 66
e 52 65
e 52 64
e 52 63
e 52 61
e 52 54
e 52 53
e 52 184
e 52 183
e 52 166
e 52 165
e 52 164
e 52 70
e 52 108
e 52 107
e 52 106
e 52 105
e 52 104
e 52 103
e 52 102
e 52 101
e 52 158
e 52 157
e 52 156
e 52 155
e 52 154
e 52 113
e 52 112
e 52 149
e 52 148
e 52 147
e 52 146
e 52 145
e 52 144
e 52 143
e 52 120
e 52 119
e 52 118
e 52 138
e 52 137
e 52 135
e 52 134
e 52 133
e 52 131
e 52 129
e 53 67
e 53 66
e 53 65
e 53 64
e 53 63
e 53 61
e 53 54
e 53 184
e 53 183
e 53 166
e 53 165
e 53 164
e 53 70
e 53 108
e 53 107
e 53 106
e 53 105
e 53 104
e 53 103
e 53 102
e 53 101
e 53 158
e 53 157
e 53 156
e 53 155
e 53 154
e 53 113
e 53 112
e 53 149
e 53 148
e 53 147
e 53 146
e 53 145
e 53 144
e 53 143
e 53 120
e 53 119
e 53 118
e 53 138
e 53 137
e 53 135
e 53 134
e 53 133
e 53 131
e 53 129
e 54 67
e 54 66
e 54 65
e 54 64
e 54 63
e 54 61
e 54 184
e 54 183
e 54 166
e 54 165
e 54 164
e 54 70
e 54 108
e 54 107
e 54 106
e 54 105
e 54 104
e 54 103
e 54 102
e 54 101
e 54 158
e 54 157
e 54 156
e 54 155
e 54 154
e 54 113
e 54 112
e 54 149
e 54 148
e 54 147
e 54 146
e 54 145
e 54 144
e 54 143
e 54 120
e 54 119
e 54 118
e 54 138
e 54 137
e 54 135
e 54 134
e 54 133
e 54 131
e 54 129
e 60 68
e 60 62
e 60 97
e 60 96
e 60 95
e 60 94
e 60 93
e 60 92
e 60 91
e 60 90
e 60 89
e 60 88
e 60 87
e 60 86
e 60 85
e 60 84
e 60 83
e 60 82
e 60 81
e 60 80
e 60 79
e 60 78
e 60 77
e 60 76
e 60 75
e 60 74
e 60 73
e 60 72
e 60 71
e 60 69
e 60 100
e 60 99
e 60 160
e 60 111
e 60 110
e 60 151
e 60 117
e 60 116
e 60 115
e 60 114
e 60 140
e 60 136
e 60 132
e 60 130
e 60 128
e 60 124
e 60 123
e 60 122
e 60 121
e 61 67
e 61 66
e 61 65
e 61 64
e 61 63
e 61 70
e 61 108
e 61 107
e 61 106
e 61 105
e 61 104
e 61 103
e 61 102
e 61 101
e 61 158
e 61 157
e 61 156
e 61 155
e 61 154
e 61 113
e 61 112
e 61 149
e 61 148
e 61 147
e 61 146
e 61 145
e 61 144
e 61 143
e 61 120
e 61 119
e 61 118
e 61 138
e 61 137
e 61 135
e 61 134
e 61 133
e 61 131
e 61 129
e 63 67
e 63 66
e 63 65
e 63 64
e 63 70
e 63 108
e 63 107
e 63 106
e 63 105
e 63 104
e 63 103
e 63 102
e 63 101
e 63 158
e 63 157
e 63 156
e 63 155
e 63 154
e 63 113
e 63 112
e 63 149
e 63 148
e 63 147
e 63 146
e 63 145
e 63 144
e 63 143
e 63 120
e 63 119
e 63 118
e 63 138
e 63 137
e 63 135
e 63 134
e 63 133
e 63 131
e 63 129
e 65 67
e 65 66
e 65 70
e 65 108
e 65 107
e 65 106
e 65 105
e 65 104
e 65 103
e 65 102
e 65 101
e 65 158
e 65 157
e 65 156
e 65 155
e 65 154
e 65 113
e 65 112
e 65 149
e 65 148
e 65 147
e 65 146
e 65 145
e 65 144
e 65 143
e 65 120
e 65 119
e 65 118
e 65 138
e 65 137
e 65 135
e 65 134
e 65 133
e 65 131
e 65 129
e 66 67
e 66 70
e 66 108
e 66 107
e 66 106
e 66 105
e 66 104
e 66 103
e 66 102
e 66 101
e 66 158
e 66 157
e 66 156
e 66 155
e 66 154
e 66 113
e 66 112
e 66 149
e 66 148
e 66 147
e 66 146
e 66 145
e 66 144
e 66 143
e 66 120
e 66 119
e 66 118
e 66 138
e 66 137
e 66 135
e 66 134
e 66 133
e 66 131
e 66 129
e 67 70
e 67 108
e 67 107
e 67 106
e 67 105
e 67 104
e 67 103
e 67 102
e 67 101
e 67 158
e 67 157
e 67 156
e 67 155
e 67 154
e 67 113
e 67 112
e 67 149
e 67 148
e 67 147
e 67 146
e 67 145
e 67 144
e 67 143
e 67 120
e 67 119
e 67 118
e 67 138
e 67 137
e 67 135
e 67 134
e 67 133
e 67 131
e 67 129
e 69 74
e 69 73
e 69 72
e 69 71
e 70 108
e 70 107
e 70 106
e 70 105
e 70 104
e 70 103
e 70 102
e 70 101
e 70 158
e 70 157
e 70 156
e 70 155
e 70 154
e 70 113
e 70 112
e 70 149
e 70 148
e 70 147
e 70 146
e 70 145
e 70 144
e 70 143
e 70 120
e 70 119
e 70 118
e 70 138
e 70 137
e 70 135
e 70 134
e 70 133
e 70 131
e 70 129
e 71 97
e 71 96
e 71 95
e 71 94
e 71 93
e 71 92
e 71 91
e 71 90
e 71 89
e 71 88
e 71 87
e 71 86
e 71 85
e 71 84
e 71 83
e 71 82
e 71 81
e 71 80
e 71 79
e 71 78
e 71 77
e 71 76
e 71 75
e 71 74
e 71 73
e 71 72
e 71 100
e 71 99
e 71 160
e 71 111
e 71 110
e 71 151
e 71 117
e 71 116
e 71 115
e 71 114
e 71 140
e 71 136
e 71 132
e 71 130
e 71 128
e 71 124
e 71 123
e 71 122
e 71 121
e 73 74
e 77 81
e 77 80
e 77 79
e 77 78
e 78 83
e 78 82
e 78 81
e 78 80
e 78 79
e 79 84
e 79 83
e 79 82
e 79 81
e 79 80
e 80 85
e 80 84
e 80 83
e 80 82
e 80 81
e 81 87
e 81 86
e 81 85
e 81 84
e 81 83
e 81 82
e 82 89
e 82 88
e 82 87
e 82 86
e 82 85
e 82 84
e 82 83
e 83 97
e 83 96
e 83 95
e 83 94
e 83 93
e 83 92
e 83 91
e 83 90
e 83 89
e 83 88
e 83 87
e 83 86
e 83 85
e 83 84
e 83 100
e 83 99
e 83 160
e 83 111
e 83 110
e 83 151
e 83 117
e 83 116
e 83 115
e 83 114
e 83 140
e 83 136
e 83 132
e 83 130
e 83 128
e 83 124
e 83 123
e 83 122
e 83 121
e 84 86
e 84 85
e 85 97
e 85 96
e 85 95
e 85 94
e 85 93
e 85 92
e 85 91
e 85 90
e 85 89
e 85 88
e 85 87
e 85 86
e 85 100
e 85 99
e 85 160
e 85 111
e 85 110
e 85 151
e 85 117
e 85 116
e 85 115
e 85 114
e 85 140
e 85 136
e 85 132
e 85 130
e 85 128
e 85 124
e 85 123
e 85 122
e 85 121
e 86 97
e 86 96
e 86 95
e 86 94
e 86 93
e 86 92
e 86 91
e 86 90
e 86 89
e 86 88
e 86 87
e 86 100
e 86 99
e 86 160
e 86 111
e 86 110
e 86 151
e 86 117
e 86 116
e 86 115
e 86 114
e 86 140
e 86 136
e 86 132
e 86 130
e 86 128
e 86 124
e 86 123
e 86 122
e 86 121
e 87 92
e 87 91
e 87 90
e 87 89
e 87 88
e 88 95
e 88 94
e 88 93
e 88 92
e 88 91
e 88 90
e 88 89
e 89 97
e 89 96
e 89 95
e 89 94
e 89 93
e 89 92
e 89 91
e 89 90
e 89 100
e 89 99
e 89 160
e 89 111
e 89 110
e 89 151
e 89 117
e 89 116
e 89 115
e 89 114
e 89 140
e 89 136
e 89 132
e 89 130
e 89 128
e 89 124
e 89 123
e 89 122
e 89 121
e 90 97
e 90 96
e 90 95
e 90 94
e 90 93
e 90 92
e 90 91
e 90 100
e 90 99
e 90 160
e 90 111
e 90 110
e 90 151
e 90 117
e 90 116
e 90 115
e 90 114
e 90 140
e 90 136
e 90 132
e 90 130
e 90 128
e 90 124
e 90 123
e 90 122
e 90 121
e 92 97
e 92 96
e 92 95
e 92 94
e 92 93
e 92 100
e 92 99
e 92 160
e 92 111
e 92 110
e 92 151
e 92 117
e 92 116
e 92 115
e 92 114
e 92 140
e 92 136
e 92 132
e 92 130
e 92 128
e 92 124
e 92 123
e 92 122
e 92 121
e 93 97
e 93 96
e 93 95
e 93 94
e 93 100
e 93 99
e 93 160
e 93 111
e 93 110
e 93 151
e 93 117
e 93 116
e 93 115
e 93 114
e 93 140
e 93 136
e 93 132
e 93 130
e 93 128
e 93 124
e 93 123
e 93 122
e 93 121
e 95 97
e 95 96
e 95 100
e 95 99
e 95 160
e 95 111
e 95 110
e 95 151
e 95 117
e 95 116
e 95 115
e 95 114
e 95 140
e 95 136
e 95 132
e 95 130
e 95 128
e 95 124
e 95 123
e 95 122
e 95 121
e 96 97
e 96 100
e 96 99
e 96 160
e 96 111
e 96 110
e 96 151
e 96 117
e 96 116
e 96 115
e 96 114
e 96 140
e 96 136
e 96 132
e 96 130
e 96 128
e 96 124
e 96 123
e 96 122
e 96 121
e 99 100
e 108 158
e 108 157
e 108 156
e 108 155
e 108 154
e 110 111
e 114 117
e 114 116
e 114 115
e 115 117
e 115 116
e 116 117
e 118 119
e 122 123
e 128 136
e 128 132
e 128 130
e 129 134
e 129 133
e 129 131
e 131 133
e 135 137
e 143 146
e 143 145
e 143 144
e 144 145
e 147 148
e 162 163
e 164 166
e 164 165
e 165 166
e 167 168
e 169 176
e 169 175
e 169 174
e 169 173
e 169 172
e 169 171
e 169 170
e 170 176
e 170 175
e 170 174
e 170 173
e 170 172
e 170 171
e 171 176
e 171 175
e 171 174
e 171 173
e 171 172
e 172 176
e 172 175
e 172 174
e 172 173
e 173 176
e 173 175
e 173 174
e 174 176
e 174 175
e 175 176
e 177 178
e 178 179
e 179 180
e 179 186
e 180 186
